
Gurobi 9.1.2 (linux64, gurobi_cl) logging started Tue Feb  8 23:20:47 2022

Academic license - for non-commercial use only - expires 2022-03-24
Using license file /home/user/gurobi.lic
Set parameter LogFile to value gurobi.log

Gurobi 9.1.2 (linux64, gurobi_cl) logging started Tue Feb  8 23:20:58 2022

Academic license - for non-commercial use only - expires 2022-03-24
Using license file /home/user/gurobi.lic
Set parameter LogFile to value gurobi.log

Gurobi 9.1.2 (linux64, gurobi_cl) logging started Tue Feb  8 23:21:53 2022

Academic license - for non-commercial use only - expires 2022-03-24
Using license file /home/user/gurobi.lic
Set parameter LogFile to value gurobi.log

Gurobi 9.1.2 (linux64, gurobi_cl) logging started Tue Feb  8 23:26:29 2022

Academic license - for non-commercial use only - expires 2022-03-24
Using license file /home/user/gurobi.lic
Set parameter LogFile to value gurobi.log

Gurobi 9.1.2 (linux64, gurobi_cl) logging started Tue Feb  8 23:26:54 2022

Academic license - for non-commercial use only - expires 2022-03-24
Using license file /home/user/gurobi.lic
Set parameter LogFile to value gurobi.log

Gurobi 9.1.2 (linux64, gurobi_cl) logging started Tue Feb  8 23:28:12 2022

Academic license - for non-commercial use only - expires 2022-03-24
Using license file /home/user/gurobi.lic
Set parameter LogFile to value gurobi.log

Gurobi 9.5.0 (linux64, gurobi_cl) logging started Wed Feb  9 09:30:49 2022

Set parameter Username
Set parameter LogFile to value "gurobi.log"

Gurobi 9.5.0 (linux64, gurobi_cl) logging started Wed Feb  9 09:52:02 2022

Set parameter Username
Set parameter LogFile to value "gurobi.log"

Gurobi 9.1.2 (linux64, gurobi_cl) logging started Mon Feb 14 16:01:52 2022

Academic license - for non-commercial use only - expires 2022-03-24
Using license file /home/user/gurobi.lic
Set parameter LogFile to value gurobi.log
